100
32
25
32
27
32
12
2
5
15
5
6
4
9
5
9
2
10
1
1
23
7
3
18
2
2
2
2
20
6
17
20
2
1
2
1
1
2
1
3
2
1
4
1
3
18
1
1
2
3
2
18
2
4
2
1
1
18
1
1
2
1
2
2
1
2
1
3
4
4
2
19
6
3
1
18
2
4
3
3
9
1
17
3
3
18
4
1
3
6
20
1
1
3
2
1
1
2
3
1
2
18